\ Generated by MPModelProtoExporter
\   Name             : 
\   Format           : Free
\   Constraints      : 11
\   Variables        : 24
\     Binary         : 0
\     Integer        : 0
\     Continuous     : 24
Minimize
 Obj: +10 x[0] +11 x[1] +12 x[2] +13 x[3] +14 x[4] +15 x[5] +16 x[6] +17 x[7] +22 x[8] +24 x[9] +26 x[10] +28 x[11] +30 x[12] +32 x[13] +34 x[14] +36 x[15] +60 x[16] +64 x[17] +68 x[18] +72 x[19] +76 x[20] +80 x[21] +84 x[22] +88 x[23] 
Subject to
 Ckn0_rhs: +48 x[0] +47 x[1] +46 x[2] +45 x[3] +44 x[4] +43 x[5] +42 x[6] +41 x[7]  <= 160
 Ckn0_lhs: +48 x[0] +47 x[1] +46 x[2] +45 x[3] +44 x[4] +43 x[5] +42 x[6] +41 x[7]  >= 0
 Ckn1_rhs: +38 x[8] +37 x[9] +36 x[10] +35 x[11] +34 x[12] +33 x[13] +32 x[14] +31 x[15]  <= 90
 Ckn1_lhs: +38 x[8] +37 x[9] +36 x[10] +35 x[11] +34 x[12] +33 x[13] +32 x[14] +31 x[15]  >= 0
 Ckn2_rhs: +28 x[16] +27 x[17] +26 x[18] +25 x[19] +24 x[20] +23 x[21] +22 x[22] +21 x[23]  <= 70
 Ckn2_lhs: +28 x[16] +27 x[17] +26 x[18] +25 x[19] +24 x[20] +23 x[21] +22 x[22] +21 x[23]  >= 0
 Cas0: +1 x[0] +1 x[8] +1 x[16]  = 1
 Cas1: +1 x[1] +1 x[9] +1 x[17]  = 1
 Cas2: +1 x[2] +1 x[10] +1 x[18]  = 1
 Cas3: +1 x[3] +1 x[11] +1 x[19]  = 1
 Cas4: +1 x[4] +1 x[12] +1 x[20]  = 1
 Cas5: +1 x[5] +1 x[13] +1 x[21]  = 1
 Cas6: +1 x[6] +1 x[14] +1 x[22]  = 1
 Cas7: +1 x[7] +1 x[15] +1 x[23]  = 1
Bounds
 0 <= x[0] <= 1
 0 <= x[1] <= 1
 0 <= x[2] <= 1
 0 <= x[3] <= 1
 0 <= x[4] <= 1
 0 <= x[5] <= 1
 0 <= x[6] <= 1
 0 <= x[7] <= 1
 0 <= x[8] <= 1
 0 <= x[9] <= 1
 0 <= x[10] <= 1
 0 <= x[11] <= 1
 0 <= x[12] <= 1
 0 <= x[13] <= 1
 0 <= x[14] <= 1
 0 <= x[15] <= 1
 0 <= x[16] <= 1
 0 <= x[17] <= 1
 0 <= x[18] <= 1
 0 <= x[19] <= 1
 0 <= x[20] <= 1
 0 <= x[21] <= 1
 0 <= x[22] <= 1
 0 <= x[23] <= 1
End
